13142
1 0 1 0 0 1 1 0 0 0 0 1 0 0 0 0 0 1 0 0 1 0 0 0 1 0 0 0 0 0 
20 11 6 2 6 5 0 24 2 17 5 20 2 20 0 2 17 17 5 11 2 0 5 0 5 20 2 24 5 24 5 11 6 11 20 20 24 24 0 17 0 17 24 6 24 17 0 20 11 20 5 2 17 5 6 20 17 11 11 17 0 5 20 11 11 11 24 0 5 5 6 6 11 17 24 20 24 20 2 24 20 0 20 17 17 17 17 0 20 5 2 24 17 11 0 24 2 0 5 6 6 0 17 11 2 5 0 11 2 2 17 2 2 11 11 5 24 24 24 24 5 2 11 20 6 0 5 24 0 11 0 11 24 11 2 17 0 5 20 17 0 20 20 17 20 11 11 5 2 5 
